
List of user-set options:

                                    Name   Value                used
                           linear_solver = mumps                 yes
                  ma57_automatic_scaling = yes                    no
                                max_iter = 2000                  yes
                             mu_strategy = adaptive              yes
                             output_file = DynamicOptimization_lMtildeState_GPOPS_IPOPTinfo.txt  yes
                             print_level = 5                     yes
                      print_user_options = yes                   yes
                                     tol = 1e-005                yes
This is Ipopt version 3.11.0, running with linear solver mumps.

Number of nonzeros in equality constraint Jacobian...:   395045
Number of nonzeros in inequality constraint Jacobian.:      172
Number of nonzeros in Lagrangian Hessian.............:   148674

Total number of variables............................:    75489
                     variables with only lower bounds:        0
                variables with lower and upper bounds:    75489
                     variables with only upper bounds:        0
Total number of equality constraints.................:    57085
Total number of inequality constraints...............:       87
        inequality constraints with only lower bounds:        0
   inequality constraints with lower and upper bounds:       87
        inequality constraints with only upper bounds:        0

iter    objective    inf_pr   inf_du lg(mu)  ||d||  lg(rg) alpha_du alpha_pr  ls
   0 9.9999900e-003 1.63e+000 1.06e-002   0.0 0.00e+000    -  0.00e+000 0.00e+000   0
   1 4.0551914e-001 1.18e+000 3.86e+001  -6.1 9.37e-001    -  1.05e-002 4.22e-001h  1
   2 1.1016181e+000 8.57e-001 2.11e+001  -2.0 1.54e+000    -  4.03e-001 4.51e-001f  1
   3 2.0406660e+000 4.14e-001 4.43e+000  -2.2 9.39e-001    -  6.61e-001 1.00e+000f  1
   4 1.5328737e+000 4.05e-001 2.25e+000  -2.5 5.08e-001    -  6.28e-001 1.00e+000f  1
   5 1.3634443e+000 1.34e-001 2.27e-001  -7.2 1.69e-001    -  5.75e-001 1.00e+000h  1
   6 1.4692735e+000 6.82e-003 1.06e-001  -3.5 1.06e-001   0.0 9.90e-001 1.00e+000h  1
   7 1.2729424e+000 4.49e-002 6.54e-002  -4.5 1.96e-001  -0.5 9.90e-001 1.00e+000h  1
   8 1.1625161e+000 4.46e-002 1.23e-002  -5.1 1.10e-001  -1.0 9.90e-001 1.00e+000h  1
   9 1.1708251e+000 6.62e-002 2.23e-003  -4.7 6.03e-002  -1.4 1.00e+000 9.50e-001h  1
iter    objective    inf_pr   inf_du lg(mu)  ||d||  lg(rg) alpha_du alpha_pr  ls
  10 1.1488995e+000 7.83e-002 1.89e-003  -4.8 1.31e-001  -1.9 1.00e+000 5.67e-001h  1
  11 1.4181772e+000 1.17e+000 3.02e-002  -4.3 4.66e-001  -2.4 1.00e+000 7.97e-001f  1
  12 1.4434813e+000 1.17e+000 1.48e-001  -4.4 2.33e+000  -2.9 2.87e-001 4.01e-001h  1
  13 1.4534525e+000 9.27e-001 1.20e-001  -4.4 2.34e-001  -2.4 1.00e+000 2.33e-001h  1
  14 1.4855247e+000 2.28e-001 7.14e-002  -4.4 8.80e-002  -2.0 1.00e+000 1.00e+000h  1
  15 1.4942483e+000 3.84e-001 5.01e-002  -4.4 1.95e-001  -2.5 1.00e+000 1.00e+000h  1
  16 1.4967705e+000 4.41e-001 2.16e-002  -4.4 3.13e-001  -3.0 1.00e+000 5.32e-001h  1
  17 1.4998887e+000 5.51e-002 3.90e-003  -4.4 8.91e-002  -2.5 1.00e+000 1.00e+000h  1
  18 1.5006034e+000 2.54e-001 4.83e-003  -4.4 1.87e-001  -3.0 1.00e+000 1.00e+000h  1
  19 1.5002101e+000 3.62e-001 3.42e-003  -4.4 2.92e-001  -3.5 1.00e+000 5.92e-001h  1
iter    objective    inf_pr   inf_du lg(mu)  ||d||  lg(rg) alpha_du alpha_pr  ls
  20 1.5002579e+000 2.38e-001 1.29e-003  -4.4 9.35e-002  -3.1 1.00e+000 1.00e+000h  1
  21 1.0806819e+000 1.29e+000 2.43e-002  -5.0 4.20e-001  -3.5 7.95e-001 1.00e+000h  1
  22 1.1146982e+000 1.32e-001 9.46e-003  -4.8 1.78e-001  -3.1 1.00e+000 1.00e+000h  1
  23 1.0765391e+000 1.07e+001 1.19e-002  -4.9 3.28e-001  -3.6 1.00e+000 9.99e-001h  1
  24 9.9974171e-001 2.32e+000 3.70e-003  -5.2 1.18e-001  -3.2 9.93e-001 1.00e+000h  1
  25 9.9072910e-001 1.37e+000 4.08e-003  -5.2 2.81e-001  -3.6 1.00e+000 1.00e+000h  1
  26 9.3949541e-001 1.25e-001 1.58e-003  -5.5 9.56e-002  -3.2 1.00e+000 1.00e+000h  1
  27 9.2033293e-001 2.59e-001 4.99e-004  -5.6 4.28e-001  -3.7 1.00e+000 1.00e+000h  1
  28 9.5087146e-001 2.65e-001 1.59e-003  -5.4 2.09e-001  -4.2 1.00e+000 1.00e+000h  1
  29 9.4546299e-001 5.42e-001 1.45e-003  -5.5 7.17e-001  -4.7 6.44e-001 4.11e-001h  1
iter    objective    inf_pr   inf_du lg(mu)  ||d||  lg(rg) alpha_du alpha_pr  ls
  30 9.1534318e-001 1.19e-001 1.50e-003  -5.7 1.28e-001    -  1.00e+000 1.00e+000h  1
  31 9.1539664e-001 1.04e-001 3.63e-003  -5.7 6.86e+000  -5.1 6.85e-002 1.26e-001h  1
  32 9.4261015e-001 4.50e-002 2.26e-003  -5.4 8.54e-001    -  1.00e+000 1.00e+000h  1
  33 9.3127090e-001 1.15e-002 3.12e-004  -5.5 1.80e-001  -3.8 1.00e+000 1.00e+000h  1
  34 9.0752239e-001 3.58e-002 6.83e-004  -5.8 1.72e-001  -4.3 1.00e+000 1.00e+000h  1
  35 9.0139439e-001 9.33e-003 5.17e-004  -5.9 7.86e-002  -3.9 1.00e+000 1.00e+000h  1
  36 8.9112271e-001 8.83e-003 7.02e-005  -6.3 4.41e-002  -3.4 1.00e+000 1.00e+000h  1
  37 8.8747268e-001 7.16e-002 4.37e-004  -6.5 7.16e-002  -3.9 1.00e+000 1.00e+000h  1
  38 8.8430873e-001 2.73e-002 8.41e-005  -7.1 4.51e-002  -3.5 1.00e+000 1.00e+000h  1
  39 8.8344490e-001 1.91e-001 3.47e-004  -7.4 1.53e-001  -4.0 1.00e+000 1.00e+000h  1
iter    objective    inf_pr   inf_du lg(mu)  ||d||  lg(rg) alpha_du alpha_pr  ls
  40 8.9096717e-001 1.40e-001 1.40e-002  -6.3 1.18e-001  -4.4 2.67e-001 1.00e+000h  1
  41 8.8997628e-001 1.27e-001 1.24e-002  -6.8 1.30e+000    -  3.61e-001 1.38e-001h  1
  42 8.8741762e-001 1.02e-001 7.51e-003  -6.8 3.11e-001    -  1.00e+000 4.51e-001h  1
  43 8.8574113e-001 3.24e-002 2.03e-003  -6.8 3.13e-001    -  7.34e-001 7.30e-001h  1
  44 8.8551429e-001 1.30e-002 3.82e-004  -6.8 1.10e-001    -  2.04e-001 8.61e-001h  1
  45 8.8551221e-001 1.48e-002 5.19e-004  -6.8 3.18e-001  -4.9 1.00e+000 1.57e-001h  3
  46 8.8550591e-001 4.27e-003 1.64e-005  -6.8 6.58e-002  -4.5 1.00e+000 1.00e+000h  1
  47 8.8342641e-001 6.43e-003 1.61e-005  -7.4 4.72e-002  -4.1 1.00e+000 1.00e+000h  1
  48 8.8533319e-001 3.25e-002 2.60e-005  -6.8 1.32e-001  -4.5 1.00e+000 1.00e+000h  1
  49 8.8485687e-001 3.20e-003 2.29e-005  -6.9 5.79e-002    -  1.00e+000 1.00e+000h  1
iter    objective    inf_pr   inf_du lg(mu)  ||d||  lg(rg) alpha_du alpha_pr  ls
  50 8.8321526e-001 7.00e-003 2.67e-005  -7.6 5.03e-002    -  1.00e+000 1.00e+000h  1
  51 8.8302235e-001 8.57e-003 4.10e-005  -7.9 5.05e-002  -5.0 1.00e+000 1.00e+000h  1
  52 8.8429965e-001 2.48e-002 7.40e-003  -7.0 9.48e-002  -4.6 3.80e-001 1.00e+000h  1
  53 8.8375186e-001 5.34e-002 3.63e-003  -7.4 2.30e-001  -4.2 1.00e+000 5.93e-001h  1
  54 8.8369685e-001 4.45e-002 3.84e-003  -7.4 4.71e-002    -  1.00e+000 1.70e-001h  1
  55 8.8342293e-001 7.13e-003 1.16e-004  -7.4 2.93e-001    -  1.00e+000 1.00e+000h  1
  56 8.8477999e-001 7.91e-003 3.50e-003  -6.9 7.53e-002    -  2.17e-001 1.00e+000h  1
  57 8.8356020e-001 6.32e-003 1.06e-004  -7.3 8.61e-002    -  7.06e-001 1.00e+000h  1
  58 8.8363504e-001 8.57e-004 1.91e-006  -7.3 4.44e-002    -  1.00e+000 1.00e+000h  1
  59 8.8303968e-001 1.37e-003 1.87e-005  -7.8 3.08e-002    -  1.00e+000 1.00e+000h  1
iter    objective    inf_pr   inf_du lg(mu)  ||d||  lg(rg) alpha_du alpha_pr  ls
  60 8.8293054e-001 1.87e-004 1.54e-005  -8.1 3.57e-002    -  9.94e-001 1.00e+000h  1
  61 8.8286291e-001 2.84e-004 1.79e-006  -8.5 1.84e-002    -  1.00e+000 1.00e+000h  1
  62 8.8284082e-001 7.16e-005 2.38e-005  -8.8 7.85e-003    -  9.88e-001 1.00e+000h  1
  63 8.8282831e-001 2.34e-005 4.59e-007  -9.2 3.82e-003    -  1.00e+000 1.00e+000h  1

Number of Iterations....: 63

                                   (scaled)                 (unscaled)
Objective...............:  8.8282830733362538e-001   8.8282830733362538e-001
Dual infeasibility......:  4.5905160018576937e-007   4.5905160018576937e-007
Constraint violation....:  6.6509792868048312e-006   2.3400046433919020e-005
Complementarity.........:  1.0094058948279342e-009   1.0094058948279342e-009
Overall NLP error.......:  6.6509792868048312e-006   2.3400046433919020e-005


Number of objective function evaluations             = 67
Number of objective gradient evaluations             = 64
Number of equality constraint evaluations            = 67
Number of inequality constraint evaluations          = 67
Number of equality constraint Jacobian evaluations   = 64
Number of inequality constraint Jacobian evaluations = 64
Number of Lagrangian Hessian evaluations             = 63
Total CPU secs in IPOPT (w/o function evaluations)   =     97.723
Total CPU secs in NLP function evaluations           =    721.498

EXIT: Optimal Solution Found.
